interested/interested_4_2_4_0.9100653423283941.dzn
%python3 interested.py 4 2 4 0.9100653423283941
%Seed: 0.9100653423283941
%Sections: 4
%Min Interests: 2
%Max Interests: 4
interested =
[| false ,	true ,	true ,	true ,	
 | true ,	false ,	true ,	true ,	
 | false ,	true ,	true ,	true ,	
 | false ,	false ,	true ,	true ,	
 | true ,	true ,	false ,	true ,	
 | true ,	true ,	false ,	false ,	
 | false ,	true ,	false ,	true ,	
 | false ,	false ,	true ,	true ,	
 | true ,	false ,	true ,	true ,	
 | true ,	true ,	false ,	true ,	
 | true ,	true ,	true ,	false ,	
 | true ,	true ,	true ,	true ,	
 | true ,	false ,	true ,	false ,	
 | true ,	false ,	true ,	true ,	
 | true ,	false ,	true ,	true ,	
 | false ,	true ,	false ,	true ,	
 | true ,	true ,	false ,	true ,	
 | true ,	false ,	false ,	true ,	
 | true ,	true ,	true ,	true ,	
 | false ,	true ,	true ,	true ,	
|];
